
Gurobi 10.0.1 (linux64) logging started Sun Nov 26 16:37:29 2023

Set parameter LogFile to value "ArtificialInstance/ExperimentV2/S4T4K3/AdRo/gurobiDoRo50.txt"
Gurobi Optimizer version 10.0.1 build v10.0.1rc0 (linux64)

CPU model: AMD EPYC 7H12 64-Core Processor, instruction set [SSE2|AVX|AVX2]
Thread count: 128 physical cores, 128 logical processors, using up to 32 threads

Academic license 656792 - for non-commercial use only - registered to b.___@student.vu.nl
Optimize a model with 21704 rows, 20431 columns and 79542 nonzeros
Model fingerprint: 0x845911d5
Variable types: 1 continuous, 20430 integer (20430 binary)
Coefficient statistics:
  Matrix range     [1e+00, 4e+01]
  Objective range  [1e+00, 2e+01]
  Bounds range     [1e+00, 1e+00]
  RHS range        [1e+00, 1e+00]
Presolve removed 9310 rows and 8854 columns
Presolve time: 0.35s
Presolved: 12394 rows, 11577 columns, 44937 nonzeros
Variable types: 1 continuous, 11576 integer (11576 binary)
Found heuristic solution: objective 109.6469371

Root relaxation: cutoff, 3277 iterations, 0.16 seconds (0.11 work units)

    Nodes    |    Current Node    |     Objective Bounds      |     Work
 Expl Unexpl |  Obj  Depth IntInf | Incumbent    BestBd   Gap | It/Node Time

     0     0     cutoff    0       109.64694  109.64694  0.00%     -    0s

Explored 1 nodes (3277 simplex iterations) in 0.63 seconds (0.43 work units)
Thread count was 32 (of 128 available processors)

Solution count 1: 109.647 

Optimal solution found (tolerance 1.00e-04)
Best objective 1.096469371180e+02, best bound 1.096469371180e+02, gap 0.0000%
